p cnf 64 230
3 1 0
3 2 0
-1 -2 -3 0
5 6 -7 0
-5 -6 -7 0
5 -6 7 0
-5 6 7 0
8 -4 0
8 7 0
4 -7 -8 0
-7 9 0
7 9 0
10 -8 0
10 -9 0
8 9 -10 0
-4 10 -11 0
4 -10 -11 0
-4 -10 11 0
4 10 11 0
12 -1 0
12 11 0
1 -11 -12 0
3 -12 -13 0
-3 12 -13 0
3 12 13 0
-3 -12 13 0
-15 -11 0
-15 14 0
11 -14 15 0
17 16 0
17 5 0
-16 -5 -17 0
15 -17 -18 0
-15 17 -18 0
15 17 18 0
-15 -17 18 0
-14 19 -20 0
14 -19 -20 0
-14 -19 20 0
14 19 20 0
-21 1 0
-21 -20 0
-1 20 21 0
-22 8 0
-22 5 0
-8 -5 22 0
23 -14 0
23 -7 0
14 7 -23 0
-23 -10 -24 0
23 10 -24 0
-23 10 24 0
23 -10 24 0
-25 22 0
-25 24 0
-22 -24 25 0
-26 -6 0
-26 -4 0
6 4 26 0
27 -19 0
27 26 0
19 -26 -27 0
-28 25 0
-28 27 0
-25 -27 28 0
-30 5 0
-30 -29 0
-5 29 30 0
31 -16 0
31 30 0
16 -30 -31 0
-5 -31 -32 0
5 31 -32 0
-5 31 32 0
5 -31 32 0
28 -32 -33 0
-28 32 -33 0
28 32 33 0
-28 -32 33 0
34 -21 0
34 33 0
21 -33 -34 0
-35 -18 0
-35 34 0
18 -34 35 0
-36 2 0
-36 26 0
-2 -26 36 0
29 11 -37 0
-29 -11 -37 0
29 -11 37 0
-29 11 37 0
-38 36 0
-38 37 0
-36 -37 38 0
-39 -35 0
-39 -38 0
35 38 39 0
40 -13 0
40 -39 0
13 39 -40 0
-41 -14 0
-41 -29 0
14 29 41 0
-42 8 0
-42 36 0
-8 -36 42 0
-44 20 0
-44 -43 0
-20 43 44 0
-45 -42 0
-45 44 0
42 -44 45 0
-41 -45 -46 0
41 45 -46 0
-41 45 46 0
41 -45 46 0
-47 -40 0
-47 46 0
40 -46 47 0
22 26 -48 0
-22 -26 -48 0
22 -26 48 0
-22 26 48 0
-49 -48 0
-49 -48 0
48 49 0
1 -30 -50 0
-1 30 -50 0
1 30 50 0
-1 -30 50 0
-51 -14 0
-51 50 0
14 -50 51 0
52 29 0
52 -50 0
-29 50 -52 0
53 -23 0
53 -52 0
23 52 -53 0
54 -51 0
54 53 0
51 -53 -54 0
49 54 -55 0
-49 -54 -55 0
49 -54 55 0
-49 54 55 0
-56 47 0
-56 55 0
-47 -55 56 0
-50 -31 -57 0
50 31 -57 0
-50 31 57 0
50 -31 57 0
58 -31 0
58 -57 0
31 57 -58 0
-59 -30 0
-59 30 0
-60 -59 0
-60 48 0
59 -48 60 0
-61 29 0
-61 -30 0
-29 30 61 0
-60 61 -62 0
60 -61 -62 0
-60 -61 62 0
60 61 62 0
58 -62 -63 0
-58 62 -63 0
58 62 63 0
-58 -62 63 0
64 56 0
64 -63 0
-56 63 -64 0
-49 -24 -38 0
38 -2 -61 -45 48 -15 0
12 35 -50 63 0
55 -16 0
-57 -21 0
16 9 24 0
-61 -62 -40 23 0
-38 -20 -9 -48 0
26 37 0
-42 6 -61 -34 0
-50 6 61 28 0
61 -7 13 -21 0
33 -25 -43 0
3 7 -34 21 44 30 0
-32 22 11 49 -7 0
57 21 33 3 -12 0
15 6 35 0
6 -40 -32 -44 58 -17 0
-20 9 -55 14 -36 63 0
-21 57 -41 -50 17 -61 0
4 -33 -42 20 0
-50 -63 13 -57 11 0
19 49 17 -54 3 0
-14 -57 -26 40 0
32 10 0
-62 -52 0
45 -20 56 47 0
-56 -28 -29 -37 -30 0
34 -17 5 0
-35 28 -5 0
28 44 47 11 8 13 0
-16 39 60 -32 47 50 0
8 50 32 9 0
-62 -61 -28 -21 -12 -32 0
-12 15 -46 -47 -55 -43 0
26 51 -28 22 17 -45 0
5 -25 10 13 -42 0
-19 -44 -38 31 59 0
19 48 46 0
1 -62 -56 0
32 -42 1 -38 0
-21 -10 -59 -20 -54 -9 0
-49 51 -37 -44 0
14 -43 35 44 56 -10 0
-16 7 0
43 -39 -3 40 16 19 0
62 55 14 0
-47 -2 6 0
15 20 -50 -27 54 33 0
-29 -14 0
9 25 -12 0
46 30 -12 0
6 33 34 25 43 0
64 0
